NAME /Users/henri/Research/solvers/instances/idol-instances/robust/collection/cbp_Subramanyam_et_al_2020/CapBud_N30_0/models/uncertain_technology_matrix/
ROWS
 N  OBJ
 L  capacity
 L  c_5065
 L  c_5066
 L  c_5067
 L  c_5068
 L  c_5069
 L  c_5070
 L  c_5071
 L  c_5072
 L  c_5073
 L  c_5074
 L  c_5075
 L  c_5076
 L  c_5077
 L  c_5078
 L  c_5079
 L  c_5080
 L  c_5081
 L  c_5082
 L  c_5083
 L  c_5084
 L  c_5085
 L  c_5086
 L  c_5087
 L  c_5088
 L  c_5089
 L  c_5090
 L  c_5091
 L  c_5092
 L  c_5093
 L  c_5094
COLUMNS
    MARKER    'MARKER'                 'INTORG'
    x_0        OBJ        -6.43371
    x_0        c_5065     1
    x_0        capacity   1.28674
    x_1        OBJ        -3.74734
    x_1        c_5066     1
    x_1        capacity   0.749468
    x_2        OBJ        -8.86539
    x_2        c_5067     1
    x_2        capacity   1.77308
    x_3        OBJ        -2.56181
    x_3        c_5068     1
    x_3        capacity   0.512361
    x_4        OBJ        -3.6219
    x_4        c_5069     1
    x_4        capacity   0.72438
    x_5        OBJ        -3.58369
    x_5        c_5070     1
    x_5        capacity   0.716738
    x_6        OBJ        -0.0428167
    x_6        c_5071     1
    x_6        capacity   0.00856335
    x_7        OBJ        -4.3211
    x_7        c_5072     1
    x_7        capacity   0.86422
    x_8        OBJ        -4.84732
    x_8        c_5073     1
    x_8        capacity   0.969464
    x_9        OBJ        -9.52341
    x_9        c_5074     1
    x_9        capacity   1.90468
    x_10       OBJ        -9.26767
    x_10       c_5075     1
    x_10       capacity   1.85353
    x_11       OBJ        -6.55009
    x_11       c_5076     1
    x_11       capacity   1.31002
    x_12       OBJ        -3.56001
    x_12       c_5077     1
    x_12       capacity   0.712001
    x_13       OBJ        -4.71312
    x_13       c_5078     1
    x_13       capacity   0.942624
    x_14       OBJ        -6.56109
    x_14       c_5079     1
    x_14       capacity   1.31222
    x_15       OBJ        -2.96505
    x_15       c_5080     1
    x_15       capacity   0.59301
    x_16       OBJ        -0.493515
    x_16       c_5081     1
    x_16       capacity   0.098703
    x_17       OBJ        -7.32142
    x_17       c_5082     1
    x_17       capacity   1.46428
    x_18       OBJ        -8.42034
    x_18       c_5083     1
    x_18       capacity   1.68407
    x_19       OBJ        -5.09806
    x_19       c_5084     1
    x_19       capacity   1.01961
    x_20       OBJ        -0.608208
    x_20       c_5085     1
    x_20       capacity   0.121642
    x_21       OBJ        -4.76015
    x_21       c_5086     1
    x_21       capacity   0.95203
    x_22       OBJ        -0.804947
    x_22       c_5087     1
    x_22       capacity   0.160989
    x_23       OBJ        -0.454087
    x_23       c_5088     1
    x_23       capacity   0.0908175
    x_24       OBJ        -6.91909
    x_24       c_5089     1
    x_24       capacity   1.38382
    x_25       OBJ        -5.8911
    x_25       c_5090     1
    x_25       capacity   1.17822
    x_26       OBJ        -3.12297
    x_26       c_5091     1
    x_26       capacity   0.624595
    x_27       OBJ        -5.46829
    x_27       c_5092     1
    x_27       capacity   1.09366
    x_28       OBJ        -6.77394
    x_28       c_5093     1
    x_28       capacity   1.35479
    x_29       OBJ        -7.27315
    x_29       c_5094     1
    x_29       capacity   1.45463
    y_0        OBJ        -5.14696
    y_0        c_5065     1
    y_0        capacity   1.28674
    y_1        OBJ        -2.99787
    y_1        c_5066     1
    y_1        capacity   0.749468
    y_2        OBJ        -7.09231
    y_2        c_5067     1
    y_2        capacity   1.77308
    y_3        OBJ        -2.04944
    y_3        c_5068     1
    y_3        capacity   0.512361
    y_4        OBJ        -2.89752
    y_4        c_5069     1
    y_4        capacity   0.72438
    y_5        OBJ        -2.86695
    y_5        c_5070     1
    y_5        capacity   0.716738
    y_6        OBJ        -0.0342534
    y_6        c_5071     1
    y_6        capacity   0.00856335
    y_7        OBJ        -3.45688
    y_7        c_5072     1
    y_7        capacity   0.86422
    y_8        OBJ        -3.87786
    y_8        c_5073     1
    y_8        capacity   0.969464
    y_9        OBJ        -7.61873
    y_9        c_5074     1
    y_9        capacity   1.90468
    y_10       OBJ        -7.41414
    y_10       c_5075     1
    y_10       capacity   1.85353
    y_11       OBJ        -5.24007
    y_11       c_5076     1
    y_11       capacity   1.31002
    y_12       OBJ        -2.848
    y_12       c_5077     1
    y_12       capacity   0.712001
    y_13       OBJ        -3.7705
    y_13       c_5078     1
    y_13       capacity   0.942624
    y_14       OBJ        -5.24888
    y_14       c_5079     1
    y_14       capacity   1.31222
    y_15       OBJ        -2.37204
    y_15       c_5080     1
    y_15       capacity   0.59301
    y_16       OBJ        -0.394812
    y_16       c_5081     1
    y_16       capacity   0.098703
    y_17       OBJ        -5.85713
    y_17       c_5082     1
    y_17       capacity   1.46428
    y_18       OBJ        -6.73627
    y_18       c_5083     1
    y_18       capacity   1.68407
    y_19       OBJ        -4.07845
    y_19       c_5084     1
    y_19       capacity   1.01961
    y_20       OBJ        -0.486566
    y_20       c_5085     1
    y_20       capacity   0.121642
    y_21       OBJ        -3.80812
    y_21       c_5086     1
    y_21       capacity   0.95203
    y_22       OBJ        -0.643958
    y_22       c_5087     1
    y_22       capacity   0.160989
    y_23       OBJ        -0.36327
    y_23       c_5088     1
    y_23       capacity   0.0908175
    y_24       OBJ        -5.53528
    y_24       c_5089     1
    y_24       capacity   1.38382
    y_25       OBJ        -4.71288
    y_25       c_5090     1
    y_25       capacity   1.17822
    y_26       OBJ        -2.49838
    y_26       c_5091     1
    y_26       capacity   0.624595
    y_27       OBJ        -4.37464
    y_27       c_5092     1
    y_27       capacity   1.09366
    y_28       OBJ        -5.41915
    y_28       c_5093     1
    y_28       capacity   1.35479
    y_29       OBJ        -5.81852
    y_29       c_5094     1
    y_29       capacity   1.45463
    MARKER    'MARKER'                 'INTEND'
RHS
    RHS       capacity   72.2874
    RHS       c_5065     1
    RHS       c_5066     1
    RHS       c_5067     1
    RHS       c_5068     1
    RHS       c_5069     1
    RHS       c_5070     1
    RHS       c_5071     1
    RHS       c_5072     1
    RHS       c_5073     1
    RHS       c_5074     1
    RHS       c_5075     1
    RHS       c_5076     1
    RHS       c_5077     1
    RHS       c_5078     1
    RHS       c_5079     1
    RHS       c_5080     1
    RHS       c_5081     1
    RHS       c_5082     1
    RHS       c_5083     1
    RHS       c_5084     1
    RHS       c_5085     1
    RHS       c_5086     1
    RHS       c_5087     1
    RHS       c_5088     1
    RHS       c_5089     1
    RHS       c_5090     1
    RHS       c_5091     1
    RHS       c_5092     1
    RHS       c_5093     1
    RHS       c_5094     1
BOUNDS
 LI BND       x_0        0
 UI BND       x_0        1
 LI BND       x_1        0
 UI BND       x_1        1
 LI BND       x_2        0
 UI BND       x_2        1
 LI BND       x_3        0
 UI BND       x_3        1
 LI BND       x_4        0
 UI BND       x_4        1
 LI BND       x_5        0
 UI BND       x_5        1
 LI BND       x_6        0
 UI BND       x_6        1
 LI BND       x_7        0
 UI BND       x_7        1
 LI BND       x_8        0
 UI BND       x_8        1
 LI BND       x_9        0
 UI BND       x_9        1
 LI BND       x_10       0
 UI BND       x_10       1
 LI BND       x_11       0
 UI BND       x_11       1
 LI BND       x_12       0
 UI BND       x_12       1
 LI BND       x_13       0
 UI BND       x_13       1
 LI BND       x_14       0
 UI BND       x_14       1
 LI BND       x_15       0
 UI BND       x_15       1
 LI BND       x_16       0
 UI BND       x_16       1
 LI BND       x_17       0
 UI BND       x_17       1
 LI BND       x_18       0
 UI BND       x_18       1
 LI BND       x_19       0
 UI BND       x_19       1
 LI BND       x_20       0
 UI BND       x_20       1
 LI BND       x_21       0
 UI BND       x_21       1
 LI BND       x_22       0
 UI BND       x_22       1
 LI BND       x_23       0
 UI BND       x_23       1
 LI BND       x_24       0
 UI BND       x_24       1
 LI BND       x_25       0
 UI BND       x_25       1
 LI BND       x_26       0
 UI BND       x_26       1
 LI BND       x_27       0
 UI BND       x_27       1
 LI BND       x_28       0
 UI BND       x_28       1
 LI BND       x_29       0
 UI BND       x_29       1
 LI BND       y_0        0
 UI BND       y_0        1
 LI BND       y_1        0
 UI BND       y_1        1
 LI BND       y_2        0
 UI BND       y_2        1
 LI BND       y_3        0
 UI BND       y_3        1
 LI BND       y_4        0
 UI BND       y_4        1
 LI BND       y_5        0
 UI BND       y_5        1
 LI BND       y_6        0
 UI BND       y_6        1
 LI BND       y_7        0
 UI BND       y_7        1
 LI BND       y_8        0
 UI BND       y_8        1
 LI BND       y_9        0
 UI BND       y_9        1
 LI BND       y_10       0
 UI BND       y_10       1
 LI BND       y_11       0
 UI BND       y_11       1
 LI BND       y_12       0
 UI BND       y_12       1
 LI BND       y_13       0
 UI BND       y_13       1
 LI BND       y_14       0
 UI BND       y_14       1
 LI BND       y_15       0
 UI BND       y_15       1
 LI BND       y_16       0
 UI BND       y_16       1
 LI BND       y_17       0
 UI BND       y_17       1
 LI BND       y_18       0
 UI BND       y_18       1
 LI BND       y_19       0
 UI BND       y_19       1
 LI BND       y_20       0
 UI BND       y_20       1
 LI BND       y_21       0
 UI BND       y_21       1
 LI BND       y_22       0
 UI BND       y_22       1
 LI BND       y_23       0
 UI BND       y_23       1
 LI BND       y_24       0
 UI BND       y_24       1
 LI BND       y_25       0
 UI BND       y_25       1
 LI BND       y_26       0
 UI BND       y_26       1
 LI BND       y_27       0
 UI BND       y_27       1
 LI BND       y_28       0
 UI BND       y_28       1
 LI BND       y_29       0
 UI BND       y_29       1
ENDATA
